************************************************************************
file with basedata            : mm30_.bas
initial value random generator: 290280298
************************************************************************
projects                      :  1
jobs (incl. supersource/sink ):  12
horizon                       :  75
RESOURCES
  - renewable                 :  2   R
  - nonrenewable              :  2   N
  - doubly constrained        :  0   D
************************************************************************
PROJECT INFORMATION:
pronr.  #jobs rel.date duedate tardcost  MPM-Time
    1     10      0       12        0       12
************************************************************************
PRECEDENCE RELATIONS:
jobnr.    #modes  #successors   successors
   1        1          3           2   3   4
   2        3          2           7  11
   3        3          1          10
   4        3          1           5
   5        3          3           6   8  11
   6        3          2           7   9
   7        3          1          10
   8        3          2           9  10
   9        3          1          12
  10        3          1          12
  11        3          1          12
  12        1          0        
************************************************************************
REQUESTS/DURATIONS:
jobnr. mode duration  R 1  R 2  N 1  N 2
------------------------------------------------------------------------
  1      1     0       0    0    0    0
  2      1     2       2    0    9    7
         2     4       1    0    9    4
         3     4       0    1    9    5
  3      1     3       0    9    3    7
         2     3       6    0    4    6
         3     6       5    0    1    6
  4      1     3       0    8    5    6
         2     8       8    0    5    6
         3    10       0    6    4    6
  5      1     1       8    0    8    5
         2     7       0    9    7    5
         3     7       2    0    7    5
  6      1     2       7    0    2    3
         2     6       0    5    2    3
         3    10       7    0    2    2
  7      1     3      10    0    9    3
         2     3       0    3    7    3
         3     8      10    0    3    1
  8      1     1       0    7    8   10
         2     2       0    7    8    8
         3     3       0    5    7    6
  9      1     1       0    6    5    9
         2     3       6    0    5    6
         3    10       0    3    4    5
 10      1     3       7    0    5   10
         2     4       0    9    4    8
         3     9       0    3    1    7
 11      1     1       0    7    6    9
         2     3       9    0    3    9
         3     8       0    6    2    8
 12      1     0       0    0    0    0
************************************************************************
RESOURCEAVAILABILITIES:
  R 1  R 2  N 1  N 2
   25   19   51   60
************************************************************************
MAXIMAL LAGS:
from  to  type  delay
    1   12   ES      0
    1    2   ES      0
    2   12   ES      0
    1    3   ES      0
    3   12   ES      0
    1    4   ES      0
    4   12   ES      0
    1    5   ES      0
    5   12   ES      0
    1    6   ES      0
    6   12   ES      0
    1    7   ES      0
    7   12   ES      0
    1    8   ES      0
    8   12   ES      0
    1    9   ES      0
    9   12   ES      0
    1   10   ES      0
   10   12   ES      0
    1   11   ES      0
   11   12   ES      0
    1   12   ES      0
    2    7   SS      2
    2    7   SE     10
    2    7   ES      8
    2    7   EE    -12
    2   11   SS      8
    2   11   SE    -10
   11    2   SE      0
    2   11   ES      0
    2   11   EE     10
    3   10   SS     -2
    3   10   SE      4
    3   10   ES    -11
    3   10   EE     -3
    4    5   SS      1
    4    5   SE     12
    4    5   ES     -4
    4    5   EE     10
    5    6   SS      7
    5    6   SE      5
    5    6   ES      6
    5    6   EE     -6
    5    8   SS      9
    5    8   SE    -10
    5    8   ES      7
    5    8   EE     -2
    5   11   SS     11
    5   11   SE    -11
    5   11   ES      4
    5   11   EE      9
    6    7   SS     -1
    6    7   SE    -11
    6    7   ES     -9
    6    7   EE      0
    6    9   SS     -1
    6    9   SE      2
    6    9   ES      7
    6    9   EE    -11
    7   10   SS     -1
    7   10   SE     -1
    7   10   ES     -7
    7   10   EE      8
    8    9   SS      5
    8    9   SE     10
    8    9   ES    -10
    8    9   EE      5
    8   10   SS     10
    8   10   SE     12
    8   10   ES     -6
    8   10   EE     -8
************************************************************************
